c A SAT instance generated from a 3-CNF formula that had 12 clauses and 8 variables
p cnf 8 12
1 -6 2 0
4 -3 1 0
6 1 8 0
1 7 -3 0
-2 5 -3 0
8 5 3 0
-4 -1 -2 0
-6 5 -8 0
-4 -7 2 0
5 4 -7 0
3 -4 -7 0
3 1 8 0
